NAME : random_11
COMMENT : 47 random nodes
TYPE : TSP
DIMENSION : 47
EDGE_WEIGHT_TYPE : EUC_2D
NODE_COORD_SECTION
1 -2210 -4371
2 2454 6222
3 136 -3455
4 -1635 5926
5 2470 1500
6 6858 -2623
7 3109 5547
8 -5701 7432
9 258 1715
10 324 -6057
11 -135 -4115
12 285 4042
13 371 -4557
14 5459 2088
15 -4483 -6030
16 6164 748
17 3179 -3001
18 -3507 -704
19 4537 -1676
20 -1889 5224
21 -4286 5285
22 -3686 6860
23 -2743 416
24 1413 -3102
25 -4360 -2311
26 -4472 2067
27 -874 -5036
28 6659 -169
29 5444 -1239
30 1496 -4615
31 -2513 1175
32 -1016 3637
33 -1193 5411
34 -3588 -4838
35 -4414 295
36 -4144 6806
37 -3841 3497
38 4461 -1509
39 -3427 -5243
40 1668 1014
41 1884 -4773
42 -746 4598
43 5778 -5646
44 7110 6584
45 6167 -2989
46 -3942 7236
47 -3561 -2775
EOF